============================[ Problem Statistics ]=============================
|                                                                             |
|  Number of variables:           100                                         |
|  Number of clauses:            2000                                         |
|  Parse time:                   0.00 s                                       |
|  Eliminated clauses:           0.00 Mb                                      |
|  Simplification time:          0.00 s                                       |
|                                                                             |
============================[ Search Statistics ]==============================
| Conflicts |          ORIGINAL         |          LEARNT          | Progress |
|           |    Vars  Clauses Literals |    Limit  Clauses Lit/Cl |          |
===============================================================================
===============================================================================
restarts              : 1
conflicts             : 18             (inf /sec)
decisions             : 17             (0.00 % random) (inf /sec)
propagations          : 196            (inf /sec)
conflict literals     : 35             (12.50 % deleted)
Memory used           : 5.00 MB
CPU time              : 0 s

UNSATISFIABLE